# Solution for model r3_t27_m1_1 Batch Number: 4
# Finished Task: 26 / 27
# Makespan: 630.0, Total Distance: 787.0, Total Time: 2.9977
# R O S F Batch
0 0 5 0.0 0.0 -1
1 1 24 0.0 0.0 -1
2 2 15 0.0 0.0 -1
3 0 9 175.0 202.0 0
4 2 14 172.0 204.0 0
5 0 3 133.0 165.0 0
6 2 28 292.0 325.0 2
7 1 22 462.0 483.0 3
8 2 16 505.0 528.0 3
9 0 19 268.0 288.0 0
10 0 25 496.0 534.0 3
11 1 7 404.0 429.0 2
12 1 11 300.0 337.0 1
13 2 4 118.0 139.0 0
14 2 6 230.0 257.0 0
15 2 13 95.0 118.0 0
16 2 17 557.0 585.0 3
17 2 -1 596.0 630.0 3
18 2 8 433.0 456.0 3
19 0 21 395.0 429.0 2
20 1 26 216.0 243.0 0
21 0 10 453.0 475.0 3
22 1 23 495.0 527.0 3
23 1 -1 556.0 584.0 3
24 1 29 75.0 106.0 0
25 0 -1 610.0 630.0 3
26 1 12 260.0 288.0 0
27 -1 -1 -1.0 -1.0 2
28 2 18 367.0 389.0 2
29 1 20 118.0 143.0 0
